language Essence 1.3
letting nnodes be 10
letting nrings be 6
letting capacity be 5
letting demand be {{1, 2},
{2, 3},
{2, 4},
{2, 9},
{2, 10},
{3, 5},
{3, 7},
{3, 10},
{4, 8},
{4, 10},
{5, 6},
{6, 7},
{6, 8},
{7, 9},
{8, 10}}
